<number of tasks>
45

<cycle time>
184

<task times>
1 9
2 9
3 10
4 10
5 17
6 17
7 13
8 13
9 20
10 20
11 10
12 11
13 6
14 22
15 11
16 19
17 12
18 3
19 7
20 4
21 55
22 14
23 27
24 29
25 26
26 6
27 5
28 24
29 4
30 5
31 7
32 4
33 15
34 3
35 7
36 9
37 4
38 7
39 5
40 4
41 21
42 12
43 6
44 5
45 5

<precedence relations>
1,3
1,7
2,4
2,8
3,5
4,6
5,9
6,10
7,9
7,14
8,10
8,14
9,41
10,41
11,13
12,13
12,37
13,14
13,15
14,17
14,25
14,29
14,30
14,31
14,32
15,16
15,18
15,23
15,24
16,19
17,26
17,27
18,19
19,20
19,33
20,21
21,22
22,28
23,33
24,33
25,26
26,38
27,28
27,33
28,38
29,41
30,41
31,41
32,41
33,34
33,35
33,36
34,38
35,40
36,38
37,43
38,40
39,41
40,41
41,42
42,44
42,45

<setup times forward>
1,4:3
1,6:3
1,10:3
1,22:2
1,23:3
1,24:3
1,39:3
1,43:3
2,4:3
2,5:3
2,9:3
2,22:2
2,23:3
2,24:3
2,39:3
2,43:3
3,4:3
3,5:3
3,6:3
3,10:3
3,14:3
3,17:2
3,22:2
3,23:3
3,24:3
3,25:2
3,26:2
3,27:2
3,28:2
3,29:2
3,30:2
3,31:3
3,32:3
3,33:2
3,34:2
3,35:2
3,36:2
3,38:2
3,39:3
3,40:2
3,43:3
4,1:3
4,3:3
4,7:3
4,8:3
4,11:3
4,12:3
4,13:3
4,15:3
4,16:3
4,17:5
4,18:3
4,19:3
4,20:3
4,21:3
4,22:5
4,25:5
4,26:5
4,27:5
4,28:5
4,29:5
4,30:5
4,33:5
4,34:5
4,35:5
4,36:5
4,37:3
4,38:5
4,40:5
5,2:3
5,7:3
5,8:3
5,11:3
5,12:3
5,13:3
5,15:3
5,16:3
5,17:5
5,18:3
5,19:3
5,20:3
5,21:3
5,22:5
5,25:5
5,26:5
5,27:5
5,28:5
5,29:5
5,30:5
5,33:5
5,34:5
5,35:5
5,36:5
5,37:3
5,38:5
5,40:5
6,1:3
6,3:3
6,7:3
6,8:3
6,11:3
6,12:3
6,13:3
6,15:3
6,16:3
6,17:5
6,18:3
6,19:3
6,20:3
6,21:3
6,22:5
6,25:5
6,26:5
6,27:5
6,28:5
6,29:5
6,30:5
6,33:5
6,34:5
6,35:5
6,36:5
6,37:3
6,38:5
6,40:5
7,4:3
7,5:3
7,6:3
7,9:3
7,10:3
7,14:3
7,22:2
7,23:3
7,24:3
7,39:3
7,43:3
8,4:3
8,5:3
8,6:3
8,9:3
8,10:3
8,14:3
8,22:2
8,23:3
8,24:3
8,39:3
8,43:3
9,2:3
9,8:3
9,11:3
9,12:3
9,13:3
9,15:3
9,16:3
9,17:5
9,18:3
9,19:3
9,20:3
9,21:3
9,22:5
9,25:5
9,26:5
9,27:5
9,28:5
9,29:5
9,30:5
9,33:5
9,34:5
9,35:5
9,36:5
9,37:3
9,38:5
9,40:5
9,41:5
10,1:3
10,3:3
10,7:3
10,11:3
10,12:3
10,13:3
10,15:3
10,16:3
10,17:5
10,18:3
10,19:3
10,20:3
10,21:3
10,22:5
10,25:5
10,26:5
10,27:5
10,28:5
10,29:5
10,30:5
10,33:5
10,34:5
10,35:5
10,36:5
10,37:3
10,38:5
10,40:5
10,41:5
11,4:3
11,5:3
11,6:3
11,9:3
11,10:3
11,39:3
11,43:3
12,4:3
12,5:3
12,6:3
12,9:3
12,10:3
12,39:3
13,4:3
13,5:3
13,6:3
13,9:3
13,10:3
13,14:3
13,39:3
13,43:3
14,3:3
14,15:3
14,16:3
14,17:5
14,18:3
14,19:3
14,20:3
14,21:3
14,22:5
14,25:5
14,29:5
14,30:5
14,37:3
15,4:3
15,5:3
15,6:3
15,9:3
15,10:3
15,14:3
15,17:2
15,23:3
15,24:3
15,25:2
15,26:2
15,27:2
15,29:2
15,30:2
15,31:3
15,32:3
15,39:3
15,43:3
16,4:3
16,5:3
16,6:3
16,9:3
16,10:3
16,14:3
16,17:2
16,23:3
16,24:3
16,25:2
16,26:2
16,27:2
16,29:2
16,30:2
16,31:3
16,32:3
16,39:3
16,43:3
17,3:2
17,4:5
17,5:5
17,6:5
17,9:5
17,10:5
17,15:2
17,16:2
17,18:2
17,19:2
17,20:2
17,21:2
17,23:5
17,24:5
17,31:5
17,32:5
17,37:2
17,39:5
17,43:5
18,4:3
18,5:3
18,6:3
18,9:3
18,10:3
18,14:3
18,17:2
18,23:3
18,24:3
18,25:2
18,26:2
18,27:2
18,29:2
18,30:2
18,31:3
18,32:3
18,39:3
18,43:3
19,4:3
19,5:3
19,6:3
19,9:3
19,10:3
19,14:3
19,17:2
19,23:3
19,24:3
19,25:2
19,26:2
19,27:2
19,29:2
19,30:2
19,31:3
19,32:3
19,33:2
19,39:3
19,43:3
20,4:3
20,5:3
20,6:3
20,9:3
20,10:3
20,14:3
20,17:2
20,23:3
20,24:3
20,25:2
20,26:2
20,27:2
20,29:2
20,30:2
20,31:3
20,32:3
20,33:2
20,34:2
20,35:2
20,36:2
20,39:3
20,43:3
21,4:3
21,5:3
21,6:3
21,9:3
21,10:3
21,14:3
21,17:2
21,22:2
21,23:3
21,24:3
21,25:2
21,26:2
21,27:2
21,29:2
21,30:2
21,31:3
21,32:3
21,33:2
21,34:2
21,35:2
21,36:2
21,39:3
21,43:3
22,1:2
22,2:2
22,3:2
22,4:5
22,5:5
22,6:5
22,7:2
22,8:2
22,9:5
22,10:5
22,14:5
22,23:5
22,24:5
22,31:5
22,32:5
22,37:2
22,39:5
22,43:5
23,1:3
23,2:3
23,3:3
23,7:3
23,8:3
23,16:3
23,17:5
23,18:3
23,19:3
23,20:3
23,21:3
23,22:5
23,25:5
23,26:5
23,27:5
23,28:5
23,29:5
23,30:5
23,33:5
23,37:3
24,1:3
24,2:3
24,3:3
24,7:3
24,8:3
24,16:3
24,17:5
24,18:3
24,19:3
24,20:3
24,21:3
24,22:5
24,25:5
24,26:5
24,27:5
24,28:5
24,29:5
24,30:5
24,33:5
24,37:3
25,3:2
25,4:5
25,5:5
25,6:5
25,9:5
25,10:5
25,15:2
25,16:2
25,18:2
25,19:2
25,20:2
25,21:2
25,23:5
25,24:5
25,31:5
25,32:5
25,37:2
25,39:5
25,43:5
26,3:2
26,4:5
26,5:5
26,6:5
26,9:5
26,10:5
26,15:2
26,16:2
26,18:2
26,19:2
26,20:2
26,21:2
26,23:5
26,24:5
26,31:5
26,32:5
26,37:2
26,39:5
26,43:5
27,3:2
27,4:5
27,5:5
27,6:5
27,9:5
27,10:5
27,15:2
27,16:2
27,18:2
27,19:2
27,20:2
27,21:2
27,23:5
27,24:5
27,31:5
27,32:5
27,37:2
27,39:5
27,43:5
28,3:2
28,4:5
28,5:5
28,6:5
28,9:5
28,10:5
28,23:5
28,24:5
28,31:5
28,32:5
28,37:2
28,39:5
28,43:5
29,3:2
29,4:5
29,5:5
29,6:5
29,9:5
29,10:5
29,15:2
29,16:2
29,18:2
29,19:2
29,20:2
29,21:2
29,23:5
29,24:5
29,31:5
29,32:5
29,37:2
29,39:5
29,43:5
30,3:2
30,4:5
30,5:5
30,6:5
30,9:5
30,10:5
30,15:2
30,16:2
30,18:2
30,19:2
30,20:2
30,21:2
30,23:5
30,24:5
30,31:5
30,32:5
30,37:2
30,39:5
30,43:5
31,3:3
31,15:3
31,16:3
31,17:5
31,18:3
31,19:3
31,20:3
31,21:3
31,22:5
31,25:5
31,26:5
31,27:5
31,28:5
31,29:5
31,30:5
31,33:5
31,34:5
31,35:5
31,36:5
31,37:3
31,38:5
31,40:5
31,41:5
32,3:3
32,15:3
32,16:3
32,17:5
32,18:3
32,19:3
32,20:3
32,21:3
32,22:5
32,25:5
32,26:5
32,27:5
32,28:5
32,29:5
32,30:5
32,33:5
32,34:5
32,35:5
32,36:5
32,37:3
32,38:5
32,40:5
32,41:5
33,3:2
33,4:5
33,5:5
33,6:5
33,9:5
33,10:5
33,20:2
33,21:2
33,31:5
33,32:5
33,37:2
33,39:5
33,43:5
34,3:2
34,4:5
34,5:5
34,6:5
34,9:5
34,10:5
34,20:2
34,21:2
34,31:5
34,32:5
34,37:2
34,39:5
34,43:5
35,3:2
35,4:5
35,5:5
35,6:5
35,9:5
35,10:5
35,20:2
35,21:2
35,31:5
35,32:5
35,37:2
35,39:5
35,43:5
36,3:2
36,4:5
36,5:5
36,6:5
36,9:5
36,10:5
36,20:2
36,21:2
36,31:5
36,32:5
36,37:2
36,39:5
36,43:5
37,4:3
37,5:3
37,6:3
37,9:3
37,10:3
37,14:3
37,17:2
37,22:2
37,23:3
37,24:3
37,25:2
37,26:2
37,27:2
37,28:2
37,29:2
37,30:2
37,31:3
37,32:3
37,33:2
37,34:2
37,35:2
37,36:2
37,38:2
37,39:3
37,40:2
37,41:2
37,42:2
37,43:3
37,44:2
37,45:2
38,3:2
38,4:5
38,5:5
38,6:5
38,9:5
38,10:5
38,31:5
38,32:5
38,37:2
38,39:5
38,43:5
39,1:3
39,2:3
39,3:3
39,7:3
39,8:3
39,11:3
39,12:3
39,13:3
39,15:3
39,16:3
39,17:5
39,18:3
39,19:3
39,20:3
39,21:3
39,22:5
39,25:5
39,26:5
39,27:5
39,28:5
39,29:5
39,30:5
39,33:5
39,34:5
39,35:5
39,36:5
39,37:3
39,38:5
39,40:5
39,41:5
40,3:2
40,4:5
40,5:5
40,6:5
40,9:5
40,10:5
40,31:5
40,32:5
40,37:2
40,39:5
40,43:5
41,37:2
41,43:5
42,37:2
42,43:5
43,1:3
43,2:3
43,3:3
43,7:3
43,8:3
43,11:3
43,13:3
43,15:3
43,16:3
43,17:5
43,18:3
43,19:3
43,20:3
43,21:3
43,22:5
43,25:5
43,26:5
43,27:5
43,28:5
43,29:5
43,30:5
43,33:5
43,34:5
43,35:5
43,36:5
43,38:5
43,40:5
43,41:5
43,42:5
43,44:5
43,45:5
44,37:2
44,43:5
45,37:2
45,43:5

<setup times backward>
1,22:2
2,22:2
3,17:2
3,22:2
3,25:2
3,26:2
3,27:2
3,28:2
3,29:2
3,30:2
3,33:2
3,34:2
3,35:2
3,36:2
3,38:2
3,40:2
4,1:3
4,2:3
4,3:3
4,7:3
4,8:3
4,11:3
4,12:3
4,13:3
4,15:3
4,16:3
4,17:5
4,18:3
4,19:3
4,20:3
4,21:3
4,22:5
4,25:5
4,26:5
4,27:5
4,28:5
4,29:5
4,30:5
4,33:5
4,34:5
4,35:5
4,36:5
4,37:3
4,38:5
4,40:5
5,1:3
5,2:3
5,3:3
5,7:3
5,8:3
5,11:3
5,12:3
5,13:3
5,15:3
5,16:3
5,17:5
5,18:3
5,19:3
5,20:3
5,21:3
5,22:5
5,25:5
5,26:5
5,27:5
5,28:5
5,29:5
5,30:5
5,33:5
5,34:5
5,35:5
5,36:5
5,37:3
5,38:5
5,40:5
6,1:3
6,2:3
6,3:3
6,7:3
6,8:3
6,11:3
6,12:3
6,13:3
6,15:3
6,16:3
6,17:5
6,18:3
6,19:3
6,20:3
6,21:3
6,22:5
6,25:5
6,26:5
6,27:5
6,28:5
6,29:5
6,30:5
6,33:5
6,34:5
6,35:5
6,36:5
6,37:3
6,38:5
6,40:5
7,22:2
8,22:2
9,1:3
9,2:3
9,3:3
9,7:3
9,8:3
9,11:3
9,12:3
9,13:3
9,15:3
9,16:3
9,17:5
9,18:3
9,19:3
9,20:3
9,21:3
9,22:5
9,25:5
9,26:5
9,27:5
9,28:5
9,29:5
9,30:5
9,33:5
9,34:5
9,35:5
9,36:5
9,37:3
9,38:5
9,40:5
10,1:3
10,2:3
10,3:3
10,7:3
10,8:3
10,11:3
10,12:3
10,13:3
10,15:3
10,16:3
10,17:5
10,18:3
10,19:3
10,20:3
10,21:3
10,22:5
10,25:5
10,26:5
10,27:5
10,28:5
10,29:5
10,30:5
10,33:5
10,34:5
10,35:5
10,36:5
10,37:3
10,38:5
10,40:5
14,1:3
14,2:3
14,3:3
14,7:3
14,8:3
14,11:3
14,12:3
14,13:3
14,15:3
14,16:3
14,18:3
14,19:3
14,20:3
14,21:3
14,22:5
14,37:3
15,17:2
15,25:2
15,26:2
15,27:2
15,29:2
15,30:2
16,17:2
16,25:2
16,26:2
16,27:2
16,29:2
16,30:2
18,17:2
18,25:2
18,26:2
18,27:2
18,29:2
18,30:2
19,17:2
19,25:2
19,26:2
19,27:2
19,29:2
19,30:2
20,17:2
20,25:2
20,26:2
20,27:2
20,29:2
20,30:2
20,33:2
20,34:2
20,35:2
20,36:2
21,17:2
21,25:2
21,26:2
21,27:2
21,29:2
21,30:2
21,33:2
21,34:2
21,35:2
21,36:2
23,1:3
23,2:3
23,3:3
23,7:3
23,8:3
23,11:3
23,12:3
23,13:3
23,15:3
23,16:3
23,17:5
23,18:3
23,19:3
23,20:3
23,21:3
23,22:5
23,25:5
23,26:5
23,27:5
23,28:5
23,29:5
23,30:5
23,37:3
24,1:3
24,2:3
24,3:3
24,7:3
24,8:3
24,11:3
24,12:3
24,13:3
24,15:3
24,16:3
24,17:5
24,18:3
24,19:3
24,20:3
24,21:3
24,22:5
24,25:5
24,26:5
24,27:5
24,28:5
24,29:5
24,30:5
24,37:3
31,1:3
31,2:3
31,3:3
31,7:3
31,8:3
31,11:3
31,12:3
31,13:3
31,15:3
31,16:3
31,17:5
31,18:3
31,19:3
31,20:3
31,21:3
31,22:5
31,25:5
31,26:5
31,27:5
31,28:5
31,29:5
31,30:5
31,33:5
31,34:5
31,35:5
31,36:5
31,37:3
31,38:5
31,40:5
32,1:3
32,2:3
32,3:3
32,7:3
32,8:3
32,11:3
32,12:3
32,13:3
32,15:3
32,16:3
32,17:5
32,18:3
32,19:3
32,20:3
32,21:3
32,22:5
32,25:5
32,26:5
32,27:5
32,28:5
32,29:5
32,30:5
32,33:5
32,34:5
32,35:5
32,36:5
32,37:3
32,38:5
32,40:5
37,17:2
37,22:2
37,25:2
37,26:2
37,27:2
37,28:2
37,29:2
37,30:2
37,33:2
37,34:2
37,35:2
37,36:2
37,38:2
37,40:2
37,41:2
37,42:2
37,44:2
37,45:2
39,1:3
39,2:3
39,3:3
39,7:3
39,8:3
39,11:3
39,12:3
39,13:3
39,15:3
39,16:3
39,17:5
39,18:3
39,19:3
39,20:3
39,21:3
39,22:5
39,25:5
39,26:5
39,27:5
39,28:5
39,29:5
39,30:5
39,33:5
39,34:5
39,35:5
39,36:5
39,37:3
39,38:5
39,40:5
43,1:3
43,2:3
43,3:3
43,7:3
43,8:3
43,11:3
43,12:3
43,13:3
43,15:3
43,16:3
43,17:5
43,18:3
43,19:3
43,20:3
43,21:3
43,22:5
43,25:5
43,26:5
43,27:5
43,28:5
43,29:5
43,30:5
43,33:5
43,34:5
43,35:5
43,36:5
43,37:3
43,38:5
43,40:5
43,41:5
43,42:5
43,44:5
43,45:5

<end>

<optimal SALBP-1 value>
3


<rand seed>
467321153

<Lower Bounds>
Lm1=3
Lms1=3
Lm2=0
Lm3=0
Lm4=3
Best=3

<Optimal Stations (Iterations: 10)>
4
